
Gurobi 9.1.2 (win64) logging started Mon Dec  6 12:12:50 2021

Gurobi Optimizer version 9.1.2 build v9.1.2rc0 (win64)
Thread count: 8 physical cores, 8 logical processors, using up to 8 threads
Optimize a model with 1 rows, 20 columns and 19 nonzeros
Model fingerprint: 0x504416d1
Variable types: 1 continuous, 19 integer (19 binary)
Coefficient statistics:
  Matrix range     [1e+00, 1e+01]
  Objective range  [1e+00, 1e+00]
  Bounds range     [9e+00, 9e+00]
  RHS range        [1e+01, 1e+01]
Presolve time: 0.00s
Presolved: 1 rows, 20 columns, 19 nonzeros
Variable types: 1 continuous, 19 integer (19 binary)

Root simplex log...

Iteration    Objective       Primal Inf.    Dual Inf.      Time
       0   -9.0117450e+00   1.079921e-01   0.000000e+00     14s
       3   -9.0117450e+00   0.000000e+00   0.000000e+00     14s

Root relaxation: objective -9.011745e+00, 3 iterations, 0.00 seconds

    Nodes    |    Current Node    |     Objective Bounds      |     Work
 Expl Unexpl |  Obj  Depth IntInf | Incumbent    BestBd   Gap | It/Node Time

     0     0   -9.01175    0    4          -   -9.01175      -     -   14s
H    0     0                       0.7241025   -9.01175  1345%     -   14s
H    0     0                      -9.0117450   -9.01175  0.00%     -   14s

Cutting planes:
  Lazy constraints: 5

Explored 1 nodes (12 simplex iterations) in 14.45 seconds
Thread count was 8 (of 8 available processors)

Solution count 2: -9.01175 0.724102 
No other solutions better than -9.01175

Optimal solution found (tolerance 1.00e-04)
Best objective -9.011745015700e+00, best bound -9.011745015700e+00, gap 0.0000%

User-callback calls 87, time in user-callback 18.08 sec
